files/upTests/set-of-tuples3/0001.eprime.solution
language ESSENCE' 1.0
$ minion Nodes: 1
$ minion TotalTime: 0.002448
$ Savile Row TotalTime: 0.611
letting x_ExplicitVarSize_tuple1 be [0, 0, 0, 1]
letting x_ExplicitVarSize_tuple2_tuple1_Explicit be [[6, 7], 
[6, 7], 
[6, 7], 
[6, 7]]
